begin unit_cell_cart
Ang
   1.762070113  -7.996106593   0.000000000
   1.762070113   7.996106593   0.000000000
   0.000000000   0.000000000   3.939404532
end unit_cell_cart

begin atoms_cart
Ang
Sr            1.7620701134       13.2759349848        0.9848511329
Ca            0.0000000000       10.6886725749        2.9545533987
Cu            1.7620701134        9.0065898003        0.9848511329
Cu           -0.0000000000       14.9974626109        2.9545533987
O             1.7620701134        8.9443562134        2.9545533987
O             0.0000000000       15.1137613862        0.9848511329
O             1.7620701134       10.8743422602        0.9848511329
O            -0.0000000000       13.0521592863        2.9545533987
end atoms_cart

! system
num_wann = 2
num_bands = 6
mp_grid 7 7 14

! job control
exclude_bands : 1-36,43-49
iprint = 2

! plotting
wannier_plot = true
wannier_plot_supercell = 3
bands_plot = true
bands_num_points = 100
bands_plot_format = gnuplot
write_hr = true
write_u_matrices = true
write_xyz = true
write_rmn = true

! disentanglement
dis_win_min = 8.0
dis_win_max = 11.0
dis_froz_min = 8.9
dis_froz_max = 11.0
dis_num_iter = 1000
dis_conv_tol = 1.0E-12
!dis_mix_ratio = 0.9

! wannierisation
num_iter = 1000
conv_window = 5
conv_tol = 1e-12

! pp tools
kpath = false
kpath_task = bands
kpath_bands_colour = spin
kpath_num_points=500
begin kpoint_path
 G 0.00 0.00 0.00 X 0.00 0.00 0.50
 X 0.00 0.00 0.50 M 0.25 0.25 0.50
 M 0.25 0.25 0.50 Y 0.25 0.25 0.00
 Y 0.25 0.25 0.00 G 0.00 0.00 0.00
 G 0.00 0.00 0.00 Z -0.25 0.25 0.00
end kpoint_path

kslice = false
kslice_task = fermi_lines
fermi_energy = 11.375
kslice_2dkmesh = 200 200
kslice_corner =  0.00  0.00  0.00
!kslice_b1 =     -0.27259  0.27259  0.27259
!kslice_b2 =      0.27259 -0.27259  0.27259
kslice_b1 =     -0.25  0.25  0.25
kslice_b2 =      0.25 -0.25  0.25
!kslice_b1 =      0.00  0.50  0.00
!kslice_b2 =      0.50  0.00  0.00
!kslice_fermi_lines_colour = spin

dos = true
dos_project = 1-2
!dos_energy_min = 8.
!dos_energy_max = 13.
dos_kmesh = 50
!dos_adpt_smr = false
!dos_smr_type = gauss
!dos_smr_fixed_en_width = 0.05

begin projections
Cu:dx2-y2:x=1,0,0
end projections

begin kpoints
  0.00000000  0.00000000  0.00000000
  0.00000000  0.00000000  0.07142857
  0.00000000  0.00000000  0.14285714
  0.00000000  0.00000000  0.21428571
  0.00000000  0.00000000  0.28571429
  0.00000000  0.00000000  0.35714286
  0.00000000  0.00000000  0.42857143
  0.00000000  0.00000000  0.50000000
  0.00000000  0.00000000  0.57142857
  0.00000000  0.00000000  0.64285714
  0.00000000  0.00000000  0.71428571
  0.00000000  0.00000000  0.78571429
  0.00000000  0.00000000  0.85714286
  0.00000000  0.00000000  0.92857143
  0.00000000  0.14285714  0.00000000
  0.00000000  0.14285714  0.07142857
  0.00000000  0.14285714  0.14285714
  0.00000000  0.14285714  0.21428571
  0.00000000  0.14285714  0.28571429
  0.00000000  0.14285714  0.35714286
  0.00000000  0.14285714  0.42857143
  0.00000000  0.14285714  0.50000000
  0.00000000  0.14285714  0.57142857
  0.00000000  0.14285714  0.64285714
  0.00000000  0.14285714  0.71428571
  0.00000000  0.14285714  0.78571429
  0.00000000  0.14285714  0.85714286
  0.00000000  0.14285714  0.92857143
  0.00000000  0.28571429  0.00000000
  0.00000000  0.28571429  0.07142857
  0.00000000  0.28571429  0.14285714
  0.00000000  0.28571429  0.21428571
  0.00000000  0.28571429  0.28571429
  0.00000000  0.28571429  0.35714286
  0.00000000  0.28571429  0.42857143
  0.00000000  0.28571429  0.50000000
  0.00000000  0.28571429  0.57142857
  0.00000000  0.28571429  0.64285714
  0.00000000  0.28571429  0.71428571
  0.00000000  0.28571429  0.78571429
  0.00000000  0.28571429  0.85714286
  0.00000000  0.28571429  0.92857143
  0.00000000  0.42857143  0.00000000
  0.00000000  0.42857143  0.07142857
  0.00000000  0.42857143  0.14285714
  0.00000000  0.42857143  0.21428571
  0.00000000  0.42857143  0.28571429
  0.00000000  0.42857143  0.35714286
  0.00000000  0.42857143  0.42857143
  0.00000000  0.42857143  0.50000000
  0.00000000  0.42857143  0.57142857
  0.00000000  0.42857143  0.64285714
  0.00000000  0.42857143  0.71428571
  0.00000000  0.42857143  0.78571429
  0.00000000  0.42857143  0.85714286
  0.00000000  0.42857143  0.92857143
  0.00000000  0.57142857  0.00000000
  0.00000000  0.57142857  0.07142857
  0.00000000  0.57142857  0.14285714
  0.00000000  0.57142857  0.21428571
  0.00000000  0.57142857  0.28571429
  0.00000000  0.57142857  0.35714286
  0.00000000  0.57142857  0.42857143
  0.00000000  0.57142857  0.50000000
  0.00000000  0.57142857  0.57142857
  0.00000000  0.57142857  0.64285714
  0.00000000  0.57142857  0.71428571
  0.00000000  0.57142857  0.78571429
  0.00000000  0.57142857  0.85714286
  0.00000000  0.57142857  0.92857143
  0.00000000  0.71428571  0.00000000
  0.00000000  0.71428571  0.07142857
  0.00000000  0.71428571  0.14285714
  0.00000000  0.71428571  0.21428571
  0.00000000  0.71428571  0.28571429
  0.00000000  0.71428571  0.35714286
  0.00000000  0.71428571  0.42857143
  0.00000000  0.71428571  0.50000000
  0.00000000  0.71428571  0.57142857
  0.00000000  0.71428571  0.64285714
  0.00000000  0.71428571  0.71428571
  0.00000000  0.71428571  0.78571429
  0.00000000  0.71428571  0.85714286
  0.00000000  0.71428571  0.92857143
  0.00000000  0.85714286  0.00000000
  0.00000000  0.85714286  0.07142857
  0.00000000  0.85714286  0.14285714
  0.00000000  0.85714286  0.21428571
  0.00000000  0.85714286  0.28571429
  0.00000000  0.85714286  0.35714286
  0.00000000  0.85714286  0.42857143
  0.00000000  0.85714286  0.50000000
  0.00000000  0.85714286  0.57142857
  0.00000000  0.85714286  0.64285714
  0.00000000  0.85714286  0.71428571
  0.00000000  0.85714286  0.78571429
  0.00000000  0.85714286  0.85714286
  0.00000000  0.85714286  0.92857143
  0.14285714  0.00000000  0.00000000
  0.14285714  0.00000000  0.07142857
  0.14285714  0.00000000  0.14285714
  0.14285714  0.00000000  0.21428571
  0.14285714  0.00000000  0.28571429
  0.14285714  0.00000000  0.35714286
  0.14285714  0.00000000  0.42857143
  0.14285714  0.00000000  0.50000000
  0.14285714  0.00000000  0.57142857
  0.14285714  0.00000000  0.64285714
  0.14285714  0.00000000  0.71428571
  0.14285714  0.00000000  0.78571429
  0.14285714  0.00000000  0.85714286
  0.14285714  0.00000000  0.92857143
  0.14285714  0.14285714  0.00000000
  0.14285714  0.14285714  0.07142857
  0.14285714  0.14285714  0.14285714
  0.14285714  0.14285714  0.21428571
  0.14285714  0.14285714  0.28571429
  0.14285714  0.14285714  0.35714286
  0.14285714  0.14285714  0.42857143
  0.14285714  0.14285714  0.50000000
  0.14285714  0.14285714  0.57142857
  0.14285714  0.14285714  0.64285714
  0.14285714  0.14285714  0.71428571
  0.14285714  0.14285714  0.78571429
  0.14285714  0.14285714  0.85714286
  0.14285714  0.14285714  0.92857143
  0.14285714  0.28571429  0.00000000
  0.14285714  0.28571429  0.07142857
  0.14285714  0.28571429  0.14285714
  0.14285714  0.28571429  0.21428571
  0.14285714  0.28571429  0.28571429
  0.14285714  0.28571429  0.35714286
  0.14285714  0.28571429  0.42857143
  0.14285714  0.28571429  0.50000000
  0.14285714  0.28571429  0.57142857
  0.14285714  0.28571429  0.64285714
  0.14285714  0.28571429  0.71428571
  0.14285714  0.28571429  0.78571429
  0.14285714  0.28571429  0.85714286
  0.14285714  0.28571429  0.92857143
  0.14285714  0.42857143  0.00000000
  0.14285714  0.42857143  0.07142857
  0.14285714  0.42857143  0.14285714
  0.14285714  0.42857143  0.21428571
  0.14285714  0.42857143  0.28571429
  0.14285714  0.42857143  0.35714286
  0.14285714  0.42857143  0.42857143
  0.14285714  0.42857143  0.50000000
  0.14285714  0.42857143  0.57142857
  0.14285714  0.42857143  0.64285714
  0.14285714  0.42857143  0.71428571
  0.14285714  0.42857143  0.78571429
  0.14285714  0.42857143  0.85714286
  0.14285714  0.42857143  0.92857143
  0.14285714  0.57142857  0.00000000
  0.14285714  0.57142857  0.07142857
  0.14285714  0.57142857  0.14285714
  0.14285714  0.57142857  0.21428571
  0.14285714  0.57142857  0.28571429
  0.14285714  0.57142857  0.35714286
  0.14285714  0.57142857  0.42857143
  0.14285714  0.57142857  0.50000000
  0.14285714  0.57142857  0.57142857
  0.14285714  0.57142857  0.64285714
  0.14285714  0.57142857  0.71428571
  0.14285714  0.57142857  0.78571429
  0.14285714  0.57142857  0.85714286
  0.14285714  0.57142857  0.92857143
  0.14285714  0.71428571  0.00000000
  0.14285714  0.71428571  0.07142857
  0.14285714  0.71428571  0.14285714
  0.14285714  0.71428571  0.21428571
  0.14285714  0.71428571  0.28571429
  0.14285714  0.71428571  0.35714286
  0.14285714  0.71428571  0.42857143
  0.14285714  0.71428571  0.50000000
  0.14285714  0.71428571  0.57142857
  0.14285714  0.71428571  0.64285714
  0.14285714  0.71428571  0.71428571
  0.14285714  0.71428571  0.78571429
  0.14285714  0.71428571  0.85714286
  0.14285714  0.71428571  0.92857143
  0.14285714  0.85714286  0.00000000
  0.14285714  0.85714286  0.07142857
  0.14285714  0.85714286  0.14285714
  0.14285714  0.85714286  0.21428571
  0.14285714  0.85714286  0.28571429
  0.14285714  0.85714286  0.35714286
  0.14285714  0.85714286  0.42857143
  0.14285714  0.85714286  0.50000000
  0.14285714  0.85714286  0.57142857
  0.14285714  0.85714286  0.64285714
  0.14285714  0.85714286  0.71428571
  0.14285714  0.85714286  0.78571429
  0.14285714  0.85714286  0.85714286
  0.14285714  0.85714286  0.92857143
  0.28571429  0.00000000  0.00000000
  0.28571429  0.00000000  0.07142857
  0.28571429  0.00000000  0.14285714
  0.28571429  0.00000000  0.21428571
  0.28571429  0.00000000  0.28571429
  0.28571429  0.00000000  0.35714286
  0.28571429  0.00000000  0.42857143
  0.28571429  0.00000000  0.50000000
  0.28571429  0.00000000  0.57142857
  0.28571429  0.00000000  0.64285714
  0.28571429  0.00000000  0.71428571
  0.28571429  0.00000000  0.78571429
  0.28571429  0.00000000  0.85714286
  0.28571429  0.00000000  0.92857143
  0.28571429  0.14285714  0.00000000
  0.28571429  0.14285714  0.07142857
  0.28571429  0.14285714  0.14285714
  0.28571429  0.14285714  0.21428571
  0.28571429  0.14285714  0.28571429
  0.28571429  0.14285714  0.35714286
  0.28571429  0.14285714  0.42857143
  0.28571429  0.14285714  0.50000000
  0.28571429  0.14285714  0.57142857
  0.28571429  0.14285714  0.64285714
  0.28571429  0.14285714  0.71428571
  0.28571429  0.14285714  0.78571429
  0.28571429  0.14285714  0.85714286
  0.28571429  0.14285714  0.92857143
  0.28571429  0.28571429  0.00000000
  0.28571429  0.28571429  0.07142857
  0.28571429  0.28571429  0.14285714
  0.28571429  0.28571429  0.21428571
  0.28571429  0.28571429  0.28571429
  0.28571429  0.28571429  0.35714286
  0.28571429  0.28571429  0.42857143
  0.28571429  0.28571429  0.50000000
  0.28571429  0.28571429  0.57142857
  0.28571429  0.28571429  0.64285714
  0.28571429  0.28571429  0.71428571
  0.28571429  0.28571429  0.78571429
  0.28571429  0.28571429  0.85714286
  0.28571429  0.28571429  0.92857143
  0.28571429  0.42857143  0.00000000
  0.28571429  0.42857143  0.07142857
  0.28571429  0.42857143  0.14285714
  0.28571429  0.42857143  0.21428571
  0.28571429  0.42857143  0.28571429
  0.28571429  0.42857143  0.35714286
  0.28571429  0.42857143  0.42857143
  0.28571429  0.42857143  0.50000000
  0.28571429  0.42857143  0.57142857
  0.28571429  0.42857143  0.64285714
  0.28571429  0.42857143  0.71428571
  0.28571429  0.42857143  0.78571429
  0.28571429  0.42857143  0.85714286
  0.28571429  0.42857143  0.92857143
  0.28571429  0.57142857  0.00000000
  0.28571429  0.57142857  0.07142857
  0.28571429  0.57142857  0.14285714
  0.28571429  0.57142857  0.21428571
  0.28571429  0.57142857  0.28571429
  0.28571429  0.57142857  0.35714286
  0.28571429  0.57142857  0.42857143
  0.28571429  0.57142857  0.50000000
  0.28571429  0.57142857  0.57142857
  0.28571429  0.57142857  0.64285714
  0.28571429  0.57142857  0.71428571
  0.28571429  0.57142857  0.78571429
  0.28571429  0.57142857  0.85714286
  0.28571429  0.57142857  0.92857143
  0.28571429  0.71428571  0.00000000
  0.28571429  0.71428571  0.07142857
  0.28571429  0.71428571  0.14285714
  0.28571429  0.71428571  0.21428571
  0.28571429  0.71428571  0.28571429
  0.28571429  0.71428571  0.35714286
  0.28571429  0.71428571  0.42857143
  0.28571429  0.71428571  0.50000000
  0.28571429  0.71428571  0.57142857
  0.28571429  0.71428571  0.64285714
  0.28571429  0.71428571  0.71428571
  0.28571429  0.71428571  0.78571429
  0.28571429  0.71428571  0.85714286
  0.28571429  0.71428571  0.92857143
  0.28571429  0.85714286  0.00000000
  0.28571429  0.85714286  0.07142857
  0.28571429  0.85714286  0.14285714
  0.28571429  0.85714286  0.21428571
  0.28571429  0.85714286  0.28571429
  0.28571429  0.85714286  0.35714286
  0.28571429  0.85714286  0.42857143
  0.28571429  0.85714286  0.50000000
  0.28571429  0.85714286  0.57142857
  0.28571429  0.85714286  0.64285714
  0.28571429  0.85714286  0.71428571
  0.28571429  0.85714286  0.78571429
  0.28571429  0.85714286  0.85714286
  0.28571429  0.85714286  0.92857143
  0.42857143  0.00000000  0.00000000
  0.42857143  0.00000000  0.07142857
  0.42857143  0.00000000  0.14285714
  0.42857143  0.00000000  0.21428571
  0.42857143  0.00000000  0.28571429
  0.42857143  0.00000000  0.35714286
  0.42857143  0.00000000  0.42857143
  0.42857143  0.00000000  0.50000000
  0.42857143  0.00000000  0.57142857
  0.42857143  0.00000000  0.64285714
  0.42857143  0.00000000  0.71428571
  0.42857143  0.00000000  0.78571429
  0.42857143  0.00000000  0.85714286
  0.42857143  0.00000000  0.92857143
  0.42857143  0.14285714  0.00000000
  0.42857143  0.14285714  0.07142857
  0.42857143  0.14285714  0.14285714
  0.42857143  0.14285714  0.21428571
  0.42857143  0.14285714  0.28571429
  0.42857143  0.14285714  0.35714286
  0.42857143  0.14285714  0.42857143
  0.42857143  0.14285714  0.50000000
  0.42857143  0.14285714  0.57142857
  0.42857143  0.14285714  0.64285714
  0.42857143  0.14285714  0.71428571
  0.42857143  0.14285714  0.78571429
  0.42857143  0.14285714  0.85714286
  0.42857143  0.14285714  0.92857143
  0.42857143  0.28571429  0.00000000
  0.42857143  0.28571429  0.07142857
  0.42857143  0.28571429  0.14285714
  0.42857143  0.28571429  0.21428571
  0.42857143  0.28571429  0.28571429
  0.42857143  0.28571429  0.35714286
  0.42857143  0.28571429  0.42857143
  0.42857143  0.28571429  0.50000000
  0.42857143  0.28571429  0.57142857
  0.42857143  0.28571429  0.64285714
  0.42857143  0.28571429  0.71428571
  0.42857143  0.28571429  0.78571429
  0.42857143  0.28571429  0.85714286
  0.42857143  0.28571429  0.92857143
  0.42857143  0.42857143  0.00000000
  0.42857143  0.42857143  0.07142857
  0.42857143  0.42857143  0.14285714
  0.42857143  0.42857143  0.21428571
  0.42857143  0.42857143  0.28571429
  0.42857143  0.42857143  0.35714286
  0.42857143  0.42857143  0.42857143
  0.42857143  0.42857143  0.50000000
  0.42857143  0.42857143  0.57142857
  0.42857143  0.42857143  0.64285714
  0.42857143  0.42857143  0.71428571
  0.42857143  0.42857143  0.78571429
  0.42857143  0.42857143  0.85714286
  0.42857143  0.42857143  0.92857143
  0.42857143  0.57142857  0.00000000
  0.42857143  0.57142857  0.07142857
  0.42857143  0.57142857  0.14285714
  0.42857143  0.57142857  0.21428571
  0.42857143  0.57142857  0.28571429
  0.42857143  0.57142857  0.35714286
  0.42857143  0.57142857  0.42857143
  0.42857143  0.57142857  0.50000000
  0.42857143  0.57142857  0.57142857
  0.42857143  0.57142857  0.64285714
  0.42857143  0.57142857  0.71428571
  0.42857143  0.57142857  0.78571429
  0.42857143  0.57142857  0.85714286
  0.42857143  0.57142857  0.92857143
  0.42857143  0.71428571  0.00000000
  0.42857143  0.71428571  0.07142857
  0.42857143  0.71428571  0.14285714
  0.42857143  0.71428571  0.21428571
  0.42857143  0.71428571  0.28571429
  0.42857143  0.71428571  0.35714286
  0.42857143  0.71428571  0.42857143
  0.42857143  0.71428571  0.50000000
  0.42857143  0.71428571  0.57142857
  0.42857143  0.71428571  0.64285714
  0.42857143  0.71428571  0.71428571
  0.42857143  0.71428571  0.78571429
  0.42857143  0.71428571  0.85714286
  0.42857143  0.71428571  0.92857143
  0.42857143  0.85714286  0.00000000
  0.42857143  0.85714286  0.07142857
  0.42857143  0.85714286  0.14285714
  0.42857143  0.85714286  0.21428571
  0.42857143  0.85714286  0.28571429
  0.42857143  0.85714286  0.35714286
  0.42857143  0.85714286  0.42857143
  0.42857143  0.85714286  0.50000000
  0.42857143  0.85714286  0.57142857
  0.42857143  0.85714286  0.64285714
  0.42857143  0.85714286  0.71428571
  0.42857143  0.85714286  0.78571429
  0.42857143  0.85714286  0.85714286
  0.42857143  0.85714286  0.92857143
  0.57142857  0.00000000  0.00000000
  0.57142857  0.00000000  0.07142857
  0.57142857  0.00000000  0.14285714
  0.57142857  0.00000000  0.21428571
  0.57142857  0.00000000  0.28571429
  0.57142857  0.00000000  0.35714286
  0.57142857  0.00000000  0.42857143
  0.57142857  0.00000000  0.50000000
  0.57142857  0.00000000  0.57142857
  0.57142857  0.00000000  0.64285714
  0.57142857  0.00000000  0.71428571
  0.57142857  0.00000000  0.78571429
  0.57142857  0.00000000  0.85714286
  0.57142857  0.00000000  0.92857143
  0.57142857  0.14285714  0.00000000
  0.57142857  0.14285714  0.07142857
  0.57142857  0.14285714  0.14285714
  0.57142857  0.14285714  0.21428571
  0.57142857  0.14285714  0.28571429
  0.57142857  0.14285714  0.35714286
  0.57142857  0.14285714  0.42857143
  0.57142857  0.14285714  0.50000000
  0.57142857  0.14285714  0.57142857
  0.57142857  0.14285714  0.64285714
  0.57142857  0.14285714  0.71428571
  0.57142857  0.14285714  0.78571429
  0.57142857  0.14285714  0.85714286
  0.57142857  0.14285714  0.92857143
  0.57142857  0.28571429  0.00000000
  0.57142857  0.28571429  0.07142857
  0.57142857  0.28571429  0.14285714
  0.57142857  0.28571429  0.21428571
  0.57142857  0.28571429  0.28571429
  0.57142857  0.28571429  0.35714286
  0.57142857  0.28571429  0.42857143
  0.57142857  0.28571429  0.50000000
  0.57142857  0.28571429  0.57142857
  0.57142857  0.28571429  0.64285714
  0.57142857  0.28571429  0.71428571
  0.57142857  0.28571429  0.78571429
  0.57142857  0.28571429  0.85714286
  0.57142857  0.28571429  0.92857143
  0.57142857  0.42857143  0.00000000
  0.57142857  0.42857143  0.07142857
  0.57142857  0.42857143  0.14285714
  0.57142857  0.42857143  0.21428571
  0.57142857  0.42857143  0.28571429
  0.57142857  0.42857143  0.35714286
  0.57142857  0.42857143  0.42857143
  0.57142857  0.42857143  0.50000000
  0.57142857  0.42857143  0.57142857
  0.57142857  0.42857143  0.64285714
  0.57142857  0.42857143  0.71428571
  0.57142857  0.42857143  0.78571429
  0.57142857  0.42857143  0.85714286
  0.57142857  0.42857143  0.92857143
  0.57142857  0.57142857  0.00000000
  0.57142857  0.57142857  0.07142857
  0.57142857  0.57142857  0.14285714
  0.57142857  0.57142857  0.21428571
  0.57142857  0.57142857  0.28571429
  0.57142857  0.57142857  0.35714286
  0.57142857  0.57142857  0.42857143
  0.57142857  0.57142857  0.50000000
  0.57142857  0.57142857  0.57142857
  0.57142857  0.57142857  0.64285714
  0.57142857  0.57142857  0.71428571
  0.57142857  0.57142857  0.78571429
  0.57142857  0.57142857  0.85714286
  0.57142857  0.57142857  0.92857143
  0.57142857  0.71428571  0.00000000
  0.57142857  0.71428571  0.07142857
  0.57142857  0.71428571  0.14285714
  0.57142857  0.71428571  0.21428571
  0.57142857  0.71428571  0.28571429
  0.57142857  0.71428571  0.35714286
  0.57142857  0.71428571  0.42857143
  0.57142857  0.71428571  0.50000000
  0.57142857  0.71428571  0.57142857
  0.57142857  0.71428571  0.64285714
  0.57142857  0.71428571  0.71428571
  0.57142857  0.71428571  0.78571429
  0.57142857  0.71428571  0.85714286
  0.57142857  0.71428571  0.92857143
  0.57142857  0.85714286  0.00000000
  0.57142857  0.85714286  0.07142857
  0.57142857  0.85714286  0.14285714
  0.57142857  0.85714286  0.21428571
  0.57142857  0.85714286  0.28571429
  0.57142857  0.85714286  0.35714286
  0.57142857  0.85714286  0.42857143
  0.57142857  0.85714286  0.50000000
  0.57142857  0.85714286  0.57142857
  0.57142857  0.85714286  0.64285714
  0.57142857  0.85714286  0.71428571
  0.57142857  0.85714286  0.78571429
  0.57142857  0.85714286  0.85714286
  0.57142857  0.85714286  0.92857143
  0.71428571  0.00000000  0.00000000
  0.71428571  0.00000000  0.07142857
  0.71428571  0.00000000  0.14285714
  0.71428571  0.00000000  0.21428571
  0.71428571  0.00000000  0.28571429
  0.71428571  0.00000000  0.35714286
  0.71428571  0.00000000  0.42857143
  0.71428571  0.00000000  0.50000000
  0.71428571  0.00000000  0.57142857
  0.71428571  0.00000000  0.64285714
  0.71428571  0.00000000  0.71428571
  0.71428571  0.00000000  0.78571429
  0.71428571  0.00000000  0.85714286
  0.71428571  0.00000000  0.92857143
  0.71428571  0.14285714  0.00000000
  0.71428571  0.14285714  0.07142857
  0.71428571  0.14285714  0.14285714
  0.71428571  0.14285714  0.21428571
  0.71428571  0.14285714  0.28571429
  0.71428571  0.14285714  0.35714286
  0.71428571  0.14285714  0.42857143
  0.71428571  0.14285714  0.50000000
  0.71428571  0.14285714  0.57142857
  0.71428571  0.14285714  0.64285714
  0.71428571  0.14285714  0.71428571
  0.71428571  0.14285714  0.78571429
  0.71428571  0.14285714  0.85714286
  0.71428571  0.14285714  0.92857143
  0.71428571  0.28571429  0.00000000
  0.71428571  0.28571429  0.07142857
  0.71428571  0.28571429  0.14285714
  0.71428571  0.28571429  0.21428571
  0.71428571  0.28571429  0.28571429
  0.71428571  0.28571429  0.35714286
  0.71428571  0.28571429  0.42857143
  0.71428571  0.28571429  0.50000000
  0.71428571  0.28571429  0.57142857
  0.71428571  0.28571429  0.64285714
  0.71428571  0.28571429  0.71428571
  0.71428571  0.28571429  0.78571429
  0.71428571  0.28571429  0.85714286
  0.71428571  0.28571429  0.92857143
  0.71428571  0.42857143  0.00000000
  0.71428571  0.42857143  0.07142857
  0.71428571  0.42857143  0.14285714
  0.71428571  0.42857143  0.21428571
  0.71428571  0.42857143  0.28571429
  0.71428571  0.42857143  0.35714286
  0.71428571  0.42857143  0.42857143
  0.71428571  0.42857143  0.50000000
  0.71428571  0.42857143  0.57142857
  0.71428571  0.42857143  0.64285714
  0.71428571  0.42857143  0.71428571
  0.71428571  0.42857143  0.78571429
  0.71428571  0.42857143  0.85714286
  0.71428571  0.42857143  0.92857143
  0.71428571  0.57142857  0.00000000
  0.71428571  0.57142857  0.07142857
  0.71428571  0.57142857  0.14285714
  0.71428571  0.57142857  0.21428571
  0.71428571  0.57142857  0.28571429
  0.71428571  0.57142857  0.35714286
  0.71428571  0.57142857  0.42857143
  0.71428571  0.57142857  0.50000000
  0.71428571  0.57142857  0.57142857
  0.71428571  0.57142857  0.64285714
  0.71428571  0.57142857  0.71428571
  0.71428571  0.57142857  0.78571429
  0.71428571  0.57142857  0.85714286
  0.71428571  0.57142857  0.92857143
  0.71428571  0.71428571  0.00000000
  0.71428571  0.71428571  0.07142857
  0.71428571  0.71428571  0.14285714
  0.71428571  0.71428571  0.21428571
  0.71428571  0.71428571  0.28571429
  0.71428571  0.71428571  0.35714286
  0.71428571  0.71428571  0.42857143
  0.71428571  0.71428571  0.50000000
  0.71428571  0.71428571  0.57142857
  0.71428571  0.71428571  0.64285714
  0.71428571  0.71428571  0.71428571
  0.71428571  0.71428571  0.78571429
  0.71428571  0.71428571  0.85714286
  0.71428571  0.71428571  0.92857143
  0.71428571  0.85714286  0.00000000
  0.71428571  0.85714286  0.07142857
  0.71428571  0.85714286  0.14285714
  0.71428571  0.85714286  0.21428571
  0.71428571  0.85714286  0.28571429
  0.71428571  0.85714286  0.35714286
  0.71428571  0.85714286  0.42857143
  0.71428571  0.85714286  0.50000000
  0.71428571  0.85714286  0.57142857
  0.71428571  0.85714286  0.64285714
  0.71428571  0.85714286  0.71428571
  0.71428571  0.85714286  0.78571429
  0.71428571  0.85714286  0.85714286
  0.71428571  0.85714286  0.92857143
  0.85714286  0.00000000  0.00000000
  0.85714286  0.00000000  0.07142857
  0.85714286  0.00000000  0.14285714
  0.85714286  0.00000000  0.21428571
  0.85714286  0.00000000  0.28571429
  0.85714286  0.00000000  0.35714286
  0.85714286  0.00000000  0.42857143
  0.85714286  0.00000000  0.50000000
  0.85714286  0.00000000  0.57142857
  0.85714286  0.00000000  0.64285714
  0.85714286  0.00000000  0.71428571
  0.85714286  0.00000000  0.78571429
  0.85714286  0.00000000  0.85714286
  0.85714286  0.00000000  0.92857143
  0.85714286  0.14285714  0.00000000
  0.85714286  0.14285714  0.07142857
  0.85714286  0.14285714  0.14285714
  0.85714286  0.14285714  0.21428571
  0.85714286  0.14285714  0.28571429
  0.85714286  0.14285714  0.35714286
  0.85714286  0.14285714  0.42857143
  0.85714286  0.14285714  0.50000000
  0.85714286  0.14285714  0.57142857
  0.85714286  0.14285714  0.64285714
  0.85714286  0.14285714  0.71428571
  0.85714286  0.14285714  0.78571429
  0.85714286  0.14285714  0.85714286
  0.85714286  0.14285714  0.92857143
  0.85714286  0.28571429  0.00000000
  0.85714286  0.28571429  0.07142857
  0.85714286  0.28571429  0.14285714
  0.85714286  0.28571429  0.21428571
  0.85714286  0.28571429  0.28571429
  0.85714286  0.28571429  0.35714286
  0.85714286  0.28571429  0.42857143
  0.85714286  0.28571429  0.50000000
  0.85714286  0.28571429  0.57142857
  0.85714286  0.28571429  0.64285714
  0.85714286  0.28571429  0.71428571
  0.85714286  0.28571429  0.78571429
  0.85714286  0.28571429  0.85714286
  0.85714286  0.28571429  0.92857143
  0.85714286  0.42857143  0.00000000
  0.85714286  0.42857143  0.07142857
  0.85714286  0.42857143  0.14285714
  0.85714286  0.42857143  0.21428571
  0.85714286  0.42857143  0.28571429
  0.85714286  0.42857143  0.35714286
  0.85714286  0.42857143  0.42857143
  0.85714286  0.42857143  0.50000000
  0.85714286  0.42857143  0.57142857
  0.85714286  0.42857143  0.64285714
  0.85714286  0.42857143  0.71428571
  0.85714286  0.42857143  0.78571429
  0.85714286  0.42857143  0.85714286
  0.85714286  0.42857143  0.92857143
  0.85714286  0.57142857  0.00000000
  0.85714286  0.57142857  0.07142857
  0.85714286  0.57142857  0.14285714
  0.85714286  0.57142857  0.21428571
  0.85714286  0.57142857  0.28571429
  0.85714286  0.57142857  0.35714286
  0.85714286  0.57142857  0.42857143
  0.85714286  0.57142857  0.50000000
  0.85714286  0.57142857  0.57142857
  0.85714286  0.57142857  0.64285714
  0.85714286  0.57142857  0.71428571
  0.85714286  0.57142857  0.78571429
  0.85714286  0.57142857  0.85714286
  0.85714286  0.57142857  0.92857143
  0.85714286  0.71428571  0.00000000
  0.85714286  0.71428571  0.07142857
  0.85714286  0.71428571  0.14285714
  0.85714286  0.71428571  0.21428571
  0.85714286  0.71428571  0.28571429
  0.85714286  0.71428571  0.35714286
  0.85714286  0.71428571  0.42857143
  0.85714286  0.71428571  0.50000000
  0.85714286  0.71428571  0.57142857
  0.85714286  0.71428571  0.64285714
  0.85714286  0.71428571  0.71428571
  0.85714286  0.71428571  0.78571429
  0.85714286  0.71428571  0.85714286
  0.85714286  0.71428571  0.92857143
  0.85714286  0.85714286  0.00000000
  0.85714286  0.85714286  0.07142857
  0.85714286  0.85714286  0.14285714
  0.85714286  0.85714286  0.21428571
  0.85714286  0.85714286  0.28571429
  0.85714286  0.85714286  0.35714286
  0.85714286  0.85714286  0.42857143
  0.85714286  0.85714286  0.50000000
  0.85714286  0.85714286  0.57142857
  0.85714286  0.85714286  0.64285714
  0.85714286  0.85714286  0.71428571
  0.85714286  0.85714286  0.78571429
  0.85714286  0.85714286  0.85714286
  0.85714286  0.85714286  0.92857143
end kpoints
