
exclude_bands = 1-2, 19-24

dis_froz_min = 7.7
dis_froz_max = 8.0

dis_num_iter = 20000
dis_conv_tol = 1e-14
num_iter = 1000

guiding_centres = T
begin projections
Pd:dz2
end projections

write_hr      = true
write_hr_diag = true

write_u_matrices = true

bands_plot = true
begin kpoint_path
G .0 .0 .0              K .0 .33333 -.33333
K .0 .33333 -.33333     M .16667 .16667 -.33333
M .16667 .16667 -.33333 G .0 .0 .0
end kpoint_path
bands_num_points 100

# This part was generated automatically by VASP
num_bands = 24
num_wann = 1
begin unit_cell_cart
     1.4149996     0.8169504     5.9143333
    -1.4149996     0.8169504     5.9143333
     0.0000000    -1.6339008     5.9143333
end unit_cell_cart
begin atoms_cart
Pd       0.0000000     0.0000000     0.0000000
Co       0.0000000     0.0000000     8.8715000
O        0.0000000     0.0000000     2.0049590
O       -0.0000000     0.0000000    15.7380415
end atoms_cart
mp_grid =    13    13    13
begin kpoints
      0.000000000000      0.000000000000      0.000000000000
      0.076923076923      0.000000000000      0.000000000000
      0.153846153846      0.000000000000      0.000000000000
      0.230769230769      0.000000000000      0.000000000000
      0.307692307692      0.000000000000      0.000000000000
      0.384615384615      0.000000000000      0.000000000000
      0.461538461538      0.000000000000      0.000000000000
      0.076923076923      0.076923076923      0.000000000000
      0.153846153846      0.076923076923      0.000000000000
      0.230769230769      0.076923076923      0.000000000000
      0.307692307692      0.076923076923      0.000000000000
      0.384615384615      0.076923076923      0.000000000000
      0.461538461538      0.076923076923      0.000000000000
     -0.461538461538      0.076923076923      0.000000000000
     -0.384615384615      0.076923076923      0.000000000000
     -0.307692307692      0.076923076923      0.000000000000
     -0.230769230769      0.076923076923      0.000000000000
     -0.153846153846      0.076923076923      0.000000000000
     -0.076923076923      0.076923076923      0.000000000000
      0.153846153846      0.153846153846      0.000000000000
      0.230769230769      0.153846153846      0.000000000000
      0.307692307692      0.153846153846      0.000000000000
      0.384615384615      0.153846153846      0.000000000000
      0.461538461538      0.153846153846      0.000000000000
     -0.461538461538      0.153846153846      0.000000000000
     -0.384615384615      0.153846153846      0.000000000000
     -0.307692307692      0.153846153846      0.000000000000
     -0.230769230769      0.153846153846      0.000000000000
     -0.153846153846      0.153846153846      0.000000000000
      0.230769230769      0.230769230769      0.000000000000
      0.307692307692      0.230769230769      0.000000000000
      0.384615384615      0.230769230769      0.000000000000
      0.461538461538      0.230769230769      0.000000000000
     -0.461538461538      0.230769230769      0.000000000000
     -0.384615384615      0.230769230769      0.000000000000
     -0.307692307692      0.230769230769      0.000000000000
     -0.230769230769      0.230769230769      0.000000000000
      0.307692307692      0.307692307692      0.000000000000
      0.384615384615      0.307692307692      0.000000000000
      0.461538461538      0.307692307692      0.000000000000
     -0.461538461538      0.307692307692      0.000000000000
     -0.384615384615      0.307692307692      0.000000000000
     -0.307692307692      0.307692307692      0.000000000000
      0.384615384615      0.384615384615      0.000000000000
      0.461538461538      0.384615384615      0.000000000000
     -0.461538461538      0.384615384615      0.000000000000
     -0.384615384615      0.384615384615      0.000000000000
      0.461538461538      0.461538461538      0.000000000000
     -0.461538461538      0.461538461538      0.000000000000
      0.076923076923      0.076923076923      0.076923076923
      0.153846153846      0.076923076923      0.076923076923
      0.230769230769      0.076923076923      0.076923076923
      0.307692307692      0.076923076923      0.076923076923
      0.384615384615      0.076923076923      0.076923076923
      0.461538461538      0.076923076923      0.076923076923
     -0.461538461538      0.076923076923      0.076923076923
     -0.384615384615      0.076923076923      0.076923076923
     -0.307692307692      0.076923076923      0.076923076923
     -0.230769230769      0.076923076923      0.076923076923
     -0.153846153846      0.076923076923      0.076923076923
     -0.076923076923      0.076923076923      0.076923076923
      0.153846153846      0.153846153846      0.076923076923
      0.230769230769      0.153846153846      0.076923076923
      0.307692307692      0.153846153846      0.076923076923
      0.384615384615      0.153846153846      0.076923076923
      0.461538461538      0.153846153846      0.076923076923
     -0.461538461538      0.153846153846      0.076923076923
     -0.384615384615      0.153846153846      0.076923076923
     -0.307692307692      0.153846153846      0.076923076923
     -0.230769230769      0.153846153846      0.076923076923
     -0.153846153846      0.153846153846      0.076923076923
     -0.076923076923      0.153846153846      0.076923076923
      0.230769230769      0.230769230769      0.076923076923
      0.307692307692      0.230769230769      0.076923076923
      0.384615384615      0.230769230769      0.076923076923
      0.461538461538      0.230769230769      0.076923076923
     -0.461538461538      0.230769230769      0.076923076923
     -0.384615384615      0.230769230769      0.076923076923
     -0.307692307692      0.230769230769      0.076923076923
     -0.230769230769      0.230769230769      0.076923076923
     -0.153846153846      0.230769230769      0.076923076923
     -0.076923076923      0.230769230769      0.076923076923
      0.307692307692      0.307692307692      0.076923076923
      0.384615384615      0.307692307692      0.076923076923
      0.461538461538      0.307692307692      0.076923076923
     -0.461538461538      0.307692307692      0.076923076923
     -0.384615384615      0.307692307692      0.076923076923
     -0.307692307692      0.307692307692      0.076923076923
     -0.230769230769      0.307692307692      0.076923076923
     -0.153846153846      0.307692307692      0.076923076923
     -0.076923076923      0.307692307692      0.076923076923
      0.384615384615      0.384615384615      0.076923076923
      0.461538461538      0.384615384615      0.076923076923
     -0.461538461538      0.384615384615      0.076923076923
     -0.384615384615      0.384615384615      0.076923076923
     -0.307692307692      0.384615384615      0.076923076923
     -0.230769230769      0.384615384615      0.076923076923
     -0.153846153846      0.384615384615      0.076923076923
     -0.076923076923      0.384615384615      0.076923076923
      0.461538461538      0.461538461538      0.076923076923
     -0.461538461538      0.461538461538      0.076923076923
     -0.384615384615      0.461538461538      0.076923076923
     -0.307692307692      0.461538461538      0.076923076923
     -0.230769230769      0.461538461538      0.076923076923
     -0.153846153846      0.461538461538      0.076923076923
     -0.076923076923      0.461538461538      0.076923076923
     -0.461538461538     -0.461538461538      0.076923076923
     -0.384615384615     -0.461538461538      0.076923076923
     -0.307692307692     -0.461538461538      0.076923076923
     -0.230769230769     -0.461538461538      0.076923076923
     -0.153846153846     -0.461538461538      0.076923076923
     -0.384615384615     -0.384615384615      0.076923076923
     -0.307692307692     -0.384615384615      0.076923076923
     -0.230769230769     -0.384615384615      0.076923076923
     -0.153846153846     -0.384615384615      0.076923076923
     -0.307692307692     -0.307692307692      0.076923076923
     -0.230769230769     -0.307692307692      0.076923076923
     -0.153846153846     -0.307692307692      0.076923076923
     -0.230769230769     -0.230769230769      0.076923076923
     -0.153846153846     -0.230769230769      0.076923076923
     -0.153846153846     -0.153846153846      0.076923076923
      0.153846153846      0.153846153846      0.153846153846
      0.230769230769      0.153846153846      0.153846153846
      0.307692307692      0.153846153846      0.153846153846
      0.384615384615      0.153846153846      0.153846153846
      0.461538461538      0.153846153846      0.153846153846
     -0.461538461538      0.153846153846      0.153846153846
     -0.384615384615      0.153846153846      0.153846153846
     -0.307692307692      0.153846153846      0.153846153846
     -0.230769230769      0.153846153846      0.153846153846
     -0.153846153846      0.153846153846      0.153846153846
      0.230769230769      0.230769230769      0.153846153846
      0.307692307692      0.230769230769      0.153846153846
      0.384615384615      0.230769230769      0.153846153846
      0.461538461538      0.230769230769      0.153846153846
     -0.461538461538      0.230769230769      0.153846153846
     -0.384615384615      0.230769230769      0.153846153846
     -0.307692307692      0.230769230769      0.153846153846
     -0.230769230769      0.230769230769      0.153846153846
     -0.153846153846      0.230769230769      0.153846153846
      0.307692307692      0.307692307692      0.153846153846
      0.384615384615      0.307692307692      0.153846153846
      0.461538461538      0.307692307692      0.153846153846
     -0.461538461538      0.307692307692      0.153846153846
     -0.384615384615      0.307692307692      0.153846153846
     -0.307692307692      0.307692307692      0.153846153846
     -0.230769230769      0.307692307692      0.153846153846
     -0.153846153846      0.307692307692      0.153846153846
      0.384615384615      0.384615384615      0.153846153846
      0.461538461538      0.384615384615      0.153846153846
     -0.461538461538      0.384615384615      0.153846153846
     -0.384615384615      0.384615384615      0.153846153846
     -0.307692307692      0.384615384615      0.153846153846
     -0.230769230769      0.384615384615      0.153846153846
     -0.153846153846      0.384615384615      0.153846153846
      0.461538461538      0.461538461538      0.153846153846
     -0.461538461538      0.461538461538      0.153846153846
     -0.384615384615      0.461538461538      0.153846153846
     -0.307692307692      0.461538461538      0.153846153846
     -0.230769230769      0.461538461538      0.153846153846
     -0.153846153846      0.461538461538      0.153846153846
     -0.461538461538     -0.461538461538      0.153846153846
     -0.384615384615     -0.461538461538      0.153846153846
     -0.307692307692     -0.461538461538      0.153846153846
     -0.230769230769     -0.461538461538      0.153846153846
     -0.384615384615     -0.384615384615      0.153846153846
     -0.307692307692     -0.384615384615      0.153846153846
     -0.230769230769     -0.384615384615      0.153846153846
     -0.307692307692     -0.307692307692      0.153846153846
     -0.230769230769     -0.307692307692      0.153846153846
     -0.230769230769     -0.230769230769      0.153846153846
      0.230769230769      0.230769230769      0.230769230769
      0.307692307692      0.230769230769      0.230769230769
      0.384615384615      0.230769230769      0.230769230769
      0.461538461538      0.230769230769      0.230769230769
     -0.461538461538      0.230769230769      0.230769230769
     -0.384615384615      0.230769230769      0.230769230769
     -0.307692307692      0.230769230769      0.230769230769
     -0.230769230769      0.230769230769      0.230769230769
      0.307692307692      0.307692307692      0.230769230769
      0.384615384615      0.307692307692      0.230769230769
      0.461538461538      0.307692307692      0.230769230769
     -0.461538461538      0.307692307692      0.230769230769
     -0.384615384615      0.307692307692      0.230769230769
     -0.307692307692      0.307692307692      0.230769230769
     -0.230769230769      0.307692307692      0.230769230769
      0.384615384615      0.384615384615      0.230769230769
      0.461538461538      0.384615384615      0.230769230769
     -0.461538461538      0.384615384615      0.230769230769
     -0.384615384615      0.384615384615      0.230769230769
     -0.307692307692      0.384615384615      0.230769230769
     -0.230769230769      0.384615384615      0.230769230769
      0.461538461538      0.461538461538      0.230769230769
     -0.461538461538      0.461538461538      0.230769230769
     -0.384615384615      0.461538461538      0.230769230769
     -0.307692307692      0.461538461538      0.230769230769
     -0.230769230769      0.461538461538      0.230769230769
     -0.461538461538     -0.461538461538      0.230769230769
     -0.384615384615     -0.461538461538      0.230769230769
     -0.307692307692     -0.461538461538      0.230769230769
     -0.384615384615     -0.384615384615      0.230769230769
     -0.307692307692     -0.384615384615      0.230769230769
     -0.307692307692     -0.307692307692      0.230769230769
      0.307692307692      0.307692307692      0.307692307692
      0.384615384615      0.307692307692      0.307692307692
      0.461538461538      0.307692307692      0.307692307692
     -0.461538461538      0.307692307692      0.307692307692
     -0.384615384615      0.307692307692      0.307692307692
     -0.307692307692      0.307692307692      0.307692307692
      0.384615384615      0.384615384615      0.307692307692
      0.461538461538      0.384615384615      0.307692307692
     -0.461538461538      0.384615384615      0.307692307692
     -0.384615384615      0.384615384615      0.307692307692
     -0.307692307692      0.384615384615      0.307692307692
      0.461538461538      0.461538461538      0.307692307692
     -0.461538461538      0.461538461538      0.307692307692
     -0.384615384615      0.461538461538      0.307692307692
     -0.307692307692      0.461538461538      0.307692307692
     -0.461538461538     -0.461538461538      0.307692307692
     -0.384615384615     -0.461538461538      0.307692307692
     -0.384615384615     -0.384615384615      0.307692307692
      0.384615384615      0.384615384615      0.384615384615
      0.461538461538      0.384615384615      0.384615384615
     -0.461538461538      0.384615384615      0.384615384615
     -0.384615384615      0.384615384615      0.384615384615
      0.461538461538      0.461538461538      0.384615384615
     -0.461538461538      0.461538461538      0.384615384615
     -0.384615384615      0.461538461538      0.384615384615
     -0.461538461538     -0.461538461538      0.384615384615
      0.461538461538      0.461538461538      0.461538461538
     -0.461538461538      0.461538461538      0.461538461538
     -0.076923076923     -0.000000000000     -0.000000000000
      0.000000000000      0.076923076923      0.000000000000
     -0.000000000000     -0.076923076923     -0.000000000000
      0.000000000000      0.000000000000      0.076923076923
     -0.000000000000     -0.000000000000     -0.076923076923
     -0.153846153846     -0.000000000000     -0.000000000000
      0.000000000000      0.153846153846      0.000000000000
     -0.000000000000     -0.153846153846     -0.000000000000
      0.000000000000      0.000000000000      0.153846153846
     -0.000000000000     -0.000000000000     -0.153846153846
     -0.230769230769     -0.000000000000     -0.000000000000
      0.000000000000      0.230769230769      0.000000000000
     -0.000000000000     -0.230769230769     -0.000000000000
      0.000000000000      0.000000000000      0.230769230769
     -0.000000000000     -0.000000000000     -0.230769230769
     -0.307692307692     -0.000000000000     -0.000000000000
      0.000000000000      0.307692307692      0.000000000000
     -0.000000000000     -0.307692307692     -0.000000000000
      0.000000000000      0.000000000000      0.307692307692
     -0.000000000000     -0.000000000000     -0.307692307692
     -0.384615384615     -0.000000000000     -0.000000000000
      0.000000000000      0.384615384615      0.000000000000
     -0.000000000000     -0.384615384615     -0.000000000000
      0.000000000000      0.000000000000      0.384615384615
     -0.000000000000     -0.000000000000     -0.384615384615
     -0.461538461538     -0.000000000000     -0.000000000000
      0.000000000000      0.461538461538      0.000000000000
     -0.000000000000     -0.461538461538     -0.000000000000
      0.000000000000      0.000000000000      0.461538461538
     -0.000000000000     -0.000000000000     -0.461538461538
     -0.076923076923     -0.076923076923     -0.000000000000
     -0.076923076923     -0.000000000000     -0.076923076923
      0.076923076923      0.000000000000      0.076923076923
      0.000000000000      0.076923076923      0.076923076923
     -0.000000000000     -0.076923076923     -0.076923076923
     -0.153846153846     -0.076923076923     -0.000000000000
     -0.153846153846     -0.000000000000     -0.076923076923
      0.153846153846      0.000000000000      0.076923076923
      0.000000000000      0.153846153846      0.076923076923
     -0.000000000000     -0.153846153846     -0.076923076923
     -0.076923076923     -0.153846153846     -0.000000000000
      0.076923076923      0.153846153846      0.000000000000
      0.076923076923      0.000000000000      0.153846153846
     -0.076923076923     -0.000000000000     -0.153846153846
     -0.000000000000     -0.076923076923     -0.153846153846
      0.000000000000      0.076923076923      0.153846153846
     -0.230769230769     -0.076923076923     -0.000000000000
     -0.230769230769     -0.000000000000     -0.076923076923
      0.230769230769      0.000000000000      0.076923076923
      0.000000000000      0.230769230769      0.076923076923
     -0.000000000000     -0.230769230769     -0.076923076923
     -0.076923076923     -0.230769230769     -0.000000000000
      0.076923076923      0.230769230769      0.000000000000
      0.076923076923      0.000000000000      0.230769230769
     -0.076923076923     -0.000000000000     -0.230769230769
     -0.000000000000     -0.076923076923     -0.230769230769
      0.000000000000      0.076923076923      0.230769230769
     -0.307692307692     -0.076923076923     -0.000000000000
     -0.307692307692     -0.000000000000     -0.076923076923
      0.307692307692      0.000000000000      0.076923076923
      0.000000000000      0.307692307692      0.076923076923
     -0.000000000000     -0.307692307692     -0.076923076923
     -0.076923076923     -0.307692307692     -0.000000000000
      0.076923076923      0.307692307692      0.000000000000
      0.076923076923      0.000000000000      0.307692307692
     -0.076923076923     -0.000000000000     -0.307692307692
     -0.000000000000     -0.076923076923     -0.307692307692
      0.000000000000      0.076923076923      0.307692307692
     -0.384615384615     -0.076923076923     -0.000000000000
     -0.384615384615     -0.000000000000     -0.076923076923
      0.384615384615      0.000000000000      0.076923076923
      0.000000000000      0.384615384615      0.076923076923
     -0.000000000000     -0.384615384615     -0.076923076923
     -0.076923076923     -0.384615384615     -0.000000000000
      0.076923076923      0.384615384615      0.000000000000
      0.076923076923      0.000000000000      0.384615384615
     -0.076923076923     -0.000000000000     -0.384615384615
     -0.000000000000     -0.076923076923     -0.384615384615
      0.000000000000      0.076923076923      0.384615384615
     -0.461538461538     -0.076923076923     -0.000000000000
     -0.461538461538     -0.000000000000     -0.076923076923
      0.461538461538      0.000000000000      0.076923076923
      0.000000000000      0.461538461538      0.076923076923
     -0.000000000000     -0.461538461538     -0.076923076923
     -0.076923076923     -0.461538461538     -0.000000000000
      0.076923076923      0.461538461538      0.000000000000
      0.076923076923      0.000000000000      0.461538461538
     -0.076923076923     -0.000000000000     -0.461538461538
     -0.000000000000     -0.076923076923     -0.461538461538
      0.000000000000      0.076923076923      0.461538461538
      0.461538461538     -0.076923076923     -0.000000000000
      0.461538461538     -0.000000000000     -0.076923076923
     -0.461538461538      0.000000000000      0.076923076923
      0.000000000000     -0.461538461538      0.076923076923
     -0.000000000000      0.461538461538     -0.076923076923
     -0.076923076923      0.461538461538     -0.000000000000
      0.076923076923     -0.461538461538      0.000000000000
      0.076923076923      0.000000000000     -0.461538461538
     -0.076923076923     -0.000000000000      0.461538461538
     -0.000000000000     -0.076923076923      0.461538461538
      0.000000000000      0.076923076923     -0.461538461538
      0.384615384615     -0.076923076923     -0.000000000000
      0.384615384615     -0.000000000000     -0.076923076923
     -0.384615384615      0.000000000000      0.076923076923
      0.000000000000     -0.384615384615      0.076923076923
     -0.000000000000      0.384615384615     -0.076923076923
     -0.076923076923      0.384615384615     -0.000000000000
      0.076923076923     -0.384615384615      0.000000000000
      0.076923076923      0.000000000000     -0.384615384615
     -0.076923076923     -0.000000000000      0.384615384615
     -0.000000000000     -0.076923076923      0.384615384615
      0.000000000000      0.076923076923     -0.384615384615
      0.307692307692     -0.076923076923     -0.000000000000
      0.307692307692     -0.000000000000     -0.076923076923
     -0.307692307692      0.000000000000      0.076923076923
      0.000000000000     -0.307692307692      0.076923076923
     -0.000000000000      0.307692307692     -0.076923076923
     -0.076923076923      0.307692307692     -0.000000000000
      0.076923076923     -0.307692307692      0.000000000000
      0.076923076923      0.000000000000     -0.307692307692
     -0.076923076923     -0.000000000000      0.307692307692
     -0.000000000000     -0.076923076923      0.307692307692
      0.000000000000      0.076923076923     -0.307692307692
      0.230769230769     -0.076923076923     -0.000000000000
      0.230769230769     -0.000000000000     -0.076923076923
     -0.230769230769      0.000000000000      0.076923076923
      0.000000000000     -0.230769230769      0.076923076923
     -0.000000000000      0.230769230769     -0.076923076923
     -0.076923076923      0.230769230769     -0.000000000000
      0.076923076923     -0.230769230769      0.000000000000
      0.076923076923      0.000000000000     -0.230769230769
     -0.076923076923     -0.000000000000      0.230769230769
     -0.000000000000     -0.076923076923      0.230769230769
      0.000000000000      0.076923076923     -0.230769230769
      0.153846153846     -0.076923076923     -0.000000000000
      0.153846153846     -0.000000000000     -0.076923076923
     -0.153846153846      0.000000000000      0.076923076923
      0.000000000000     -0.153846153846      0.076923076923
     -0.000000000000      0.153846153846     -0.076923076923
     -0.076923076923      0.153846153846     -0.000000000000
      0.076923076923     -0.153846153846      0.000000000000
      0.076923076923      0.000000000000     -0.153846153846
     -0.076923076923     -0.000000000000      0.153846153846
     -0.000000000000     -0.076923076923      0.153846153846
      0.000000000000      0.076923076923     -0.153846153846
      0.076923076923     -0.076923076923     -0.000000000000
      0.076923076923     -0.000000000000     -0.076923076923
     -0.076923076923      0.000000000000      0.076923076923
      0.000000000000     -0.076923076923      0.076923076923
     -0.000000000000      0.076923076923     -0.076923076923
     -0.153846153846     -0.153846153846     -0.000000000000
     -0.153846153846     -0.000000000000     -0.153846153846
      0.153846153846      0.000000000000      0.153846153846
      0.000000000000      0.153846153846      0.153846153846
     -0.000000000000     -0.153846153846     -0.153846153846
     -0.230769230769     -0.153846153846     -0.000000000000
     -0.230769230769     -0.000000000000     -0.153846153846
      0.230769230769      0.000000000000      0.153846153846
      0.000000000000      0.230769230769      0.153846153846
     -0.000000000000     -0.230769230769     -0.153846153846
     -0.153846153846     -0.230769230769     -0.000000000000
      0.153846153846      0.230769230769      0.000000000000
      0.153846153846      0.000000000000      0.230769230769
     -0.153846153846     -0.000000000000     -0.230769230769
     -0.000000000000     -0.153846153846     -0.230769230769
      0.000000000000      0.153846153846      0.230769230769
     -0.307692307692     -0.153846153846     -0.000000000000
     -0.307692307692     -0.000000000000     -0.153846153846
      0.307692307692      0.000000000000      0.153846153846
      0.000000000000      0.307692307692      0.153846153846
     -0.000000000000     -0.307692307692     -0.153846153846
     -0.153846153846     -0.307692307692     -0.000000000000
      0.153846153846      0.307692307692      0.000000000000
      0.153846153846      0.000000000000      0.307692307692
     -0.153846153846     -0.000000000000     -0.307692307692
     -0.000000000000     -0.153846153846     -0.307692307692
      0.000000000000      0.153846153846      0.307692307692
     -0.384615384615     -0.153846153846     -0.000000000000
     -0.384615384615     -0.000000000000     -0.153846153846
      0.384615384615      0.000000000000      0.153846153846
      0.000000000000      0.384615384615      0.153846153846
     -0.000000000000     -0.384615384615     -0.153846153846
     -0.153846153846     -0.384615384615     -0.000000000000
      0.153846153846      0.384615384615      0.000000000000
      0.153846153846      0.000000000000      0.384615384615
     -0.153846153846     -0.000000000000     -0.384615384615
     -0.000000000000     -0.153846153846     -0.384615384615
      0.000000000000      0.153846153846      0.384615384615
     -0.461538461538     -0.153846153846     -0.000000000000
     -0.461538461538     -0.000000000000     -0.153846153846
      0.461538461538      0.000000000000      0.153846153846
      0.000000000000      0.461538461538      0.153846153846
     -0.000000000000     -0.461538461538     -0.153846153846
     -0.153846153846     -0.461538461538     -0.000000000000
      0.153846153846      0.461538461538      0.000000000000
      0.153846153846      0.000000000000      0.461538461538
     -0.153846153846     -0.000000000000     -0.461538461538
     -0.000000000000     -0.153846153846     -0.461538461538
      0.000000000000      0.153846153846      0.461538461538
      0.461538461538     -0.153846153846     -0.000000000000
      0.461538461538     -0.000000000000     -0.153846153846
     -0.461538461538      0.000000000000      0.153846153846
      0.000000000000     -0.461538461538      0.153846153846
     -0.000000000000      0.461538461538     -0.153846153846
     -0.153846153846      0.461538461538     -0.000000000000
      0.153846153846     -0.461538461538      0.000000000000
      0.153846153846      0.000000000000     -0.461538461538
     -0.153846153846     -0.000000000000      0.461538461538
     -0.000000000000     -0.153846153846      0.461538461538
      0.000000000000      0.153846153846     -0.461538461538
      0.384615384615     -0.153846153846     -0.000000000000
      0.384615384615     -0.000000000000     -0.153846153846
     -0.384615384615      0.000000000000      0.153846153846
      0.000000000000     -0.384615384615      0.153846153846
     -0.000000000000      0.384615384615     -0.153846153846
     -0.153846153846      0.384615384615     -0.000000000000
      0.153846153846     -0.384615384615      0.000000000000
      0.153846153846      0.000000000000     -0.384615384615
     -0.153846153846     -0.000000000000      0.384615384615
     -0.000000000000     -0.153846153846      0.384615384615
      0.000000000000      0.153846153846     -0.384615384615
      0.307692307692     -0.153846153846     -0.000000000000
      0.307692307692     -0.000000000000     -0.153846153846
     -0.307692307692      0.000000000000      0.153846153846
      0.000000000000     -0.307692307692      0.153846153846
     -0.000000000000      0.307692307692     -0.153846153846
     -0.153846153846      0.307692307692     -0.000000000000
      0.153846153846     -0.307692307692      0.000000000000
      0.153846153846      0.000000000000     -0.307692307692
     -0.153846153846     -0.000000000000      0.307692307692
     -0.000000000000     -0.153846153846      0.307692307692
      0.000000000000      0.153846153846     -0.307692307692
      0.230769230769     -0.153846153846     -0.000000000000
      0.230769230769     -0.000000000000     -0.153846153846
     -0.230769230769      0.000000000000      0.153846153846
      0.000000000000     -0.230769230769      0.153846153846
     -0.000000000000      0.230769230769     -0.153846153846
     -0.153846153846      0.230769230769     -0.000000000000
      0.153846153846     -0.230769230769      0.000000000000
      0.153846153846      0.000000000000     -0.230769230769
     -0.153846153846     -0.000000000000      0.230769230769
     -0.000000000000     -0.153846153846      0.230769230769
      0.000000000000      0.153846153846     -0.230769230769
      0.153846153846     -0.153846153846     -0.000000000000